Route #1: 46 61 55 56 25 28 51 50 58 32 41 35 26 60 24 12 10 19 6 39 13 15 22 36 42 4 48 43 40
Route #2: 29 53 49 38 3 17 23 45
Route #3: 
Route #4: 44 59 18 27 34 62 54 57 33 7 30
Route #5: 11 9
Route #6: 21 14 20 47 31 2 5
Route #7: 1 8 52 16
Route #8: 37
cost 2165.4636451279907
